%subst l914 ../g09_cisrho/l914/
%mem=60MW
%chk=LiCN.chk
%nproc=1
#p cis=(root=1,nstates=20,alltransitiondensities)/6-31G** density=rhoci iop(9/33=1) 

LiCN 6-31G(d)

0 1
Li 0.0 0.0 -2.085506
C  0.0 0.0 -0.136506
N  0.0 0.0  1.010794

